webassembly/ejemplos_dzn/folder11_json_43.dzn
TERM = { '.', 's(2)', 'in_1', 'local_0', 'local_1', 'in_2', 's(1)', 's(0)', 'in_0'};
null = '.';
s = 11;
n = 8;
ndeps = 5;
max_registers_sz = 5;
NR = 2;
registers = [|'local_0', 's(1)', |'local_1', 's(1)'|];
dependencies = [|'i32.load_0', 'i32.store16_1', |'i32.store16_1', 'i32.load8_s_2', |'i32.store16_1', 'i32.load8_s_8', |'i32.load8_s_2', 'i32.store16_9', |'i32.load8_s_8', 'i32.store16_9'|];
GET_ENUM = { GET1, GET2, GET3, GET4, GET5, GET6, GET7};
SET_ENUM = { SET1, SET2, SET3, SET4, SET5, SET6, SET7};
TEE_ENUM = { TEE1, TEE2, TEE3, TEE4, TEE5, TEE6, TEE7};
N = 5;
OP = { 'i32.load_0', 'i32.store16_1', 'i32.load8_s_2', 'i32.load8_s_8', 'i32.store16_9' };
in_ops = [1, 2, 1, 1, 2 ];
out_ops = [1, 0, 1, 1, 0 ];
in1 = ['in_0', 's(0)', 'in_2', 's(1)', 's(2)' ];
in2 = ['.', 'in_1', '.', '.', 's(1)' ];
in3 = ['.', '.', '.', '.', '.' ];
out1 = ['s(0)', '.', 's(1)', 's(2)', '.' ];
out2 = ['.', '.', '.', '.', '.' ];
out3 = ['.', '.', '.', '.', '.' ];
comm = [false, false, false, false, false ];
gas = [1, 1, 1, 1, 1 ];
sz = [1, 1, 1, 1, 1 ];
stor = [false, true, false, false, true ];
lb = [ 1, 1, 1, 1, 1 ];
ub = [ 11, 11, 11, 11, 11 ];
startstack = [ 'in_0', 'in_1', 'in_2', null, null, null, null, null ];
endstack = [ 's(1)', 's(1)', null, null, null, null, null, null ];
