webassembly/ejemplos_results/11/folder11_json_43.txt
value = 11;
fgas = [1, 1, 1, 1, 1, 1, 1, 1, 1, 1, 1];
fsize = [1, 1, 1, 1, 1, 1, 1, 1, 1, 1, 1];
states = 
[|   in_0,   in_1, in_2, '.', '.', '.', '.', '.'
 | 's(0)',   in_1, in_2, '.', '.', '.', '.', '.'
 | 's(2)', 's(1)',  '.', '.', '.', '.', '.', '.'
 |   in_2, 's(1)',  '.', '.', '.', '.', '.', '.'
 | 's(1)', 's(1)',  '.', '.', '.', '.', '.', '.'
 | 's(2)', 's(1)',  '.', '.', '.', '.', '.', '.'
 | 's(2)', 's(1)',  '.', '.', '.', '.', '.', '.'
 | 's(1)', 's(1)',  '.', '.', '.', '.', '.', '.'
 | 's(2)', 's(1)',  '.', '.', '.', '.', '.', '.'
 | 's(1)', 's(1)',  '.', '.', '.', '.', '.', '.'
 | 's(1)', 's(1)',  '.', '.', '.', '.', '.', '.'
 | 's(1)', 's(1)',  '.', '.', '.', '.', '.', '.'
 |];
register_states = 
[| local_0, local_1, '.', '.', '.', '.', '.'
 | local_0, local_1, '.', '.', '.', '.', '.'
 | local_0, local_1, '.', '.', '.', '.', '.'
 | local_0, local_1, '.', '.', '.', '.', '.'
 | local_0, local_1, '.', '.', '.', '.', '.'
 | local_0, local_1, '.', '.', '.', '.', '.'
 | local_0, local_1, '.', '.', '.', '.', '.'
 | local_0, local_1, '.', '.', '.', '.', '.'
 | local_0, local_1, '.', '.', '.', '.', '.'
 | local_0, local_1, '.', '.', '.', '.', '.'
 | local_0,  's(1)', '.', '.', '.', '.', '.'
 |  's(1)',  's(1)', '.', '.', '.', '.', '.'
 |];
program = [O('i32.load_0'), O('i32.store16_1'), O('i32.store16_9'), O('i32.load8_s_2'), O('i32.load8_s_8'), O('i32.store16_9'), O('i32.store16_9'), O('i32.load8_s_8'), O('i32.store16_9'), TEE(TEE2), TEE(TEE1)];
% time elapsed: 0.17 s
----------
value = 10;
fgas = [1, 1, 1, 1, 1, 1, 1, 1, 1, 1, 0];
fsize = [1, 1, 1, 1, 1, 1, 1, 1, 1, 1, 1];
states = 
[|   in_0,   in_1, in_2, '.', '.', '.', '.', '.'
 | 's(0)',   in_1, in_2, '.', '.', '.', '.', '.'
 |   in_2, 's(1)',  '.', '.', '.', '.', '.', '.'
 |   in_2, 's(1)',  '.', '.', '.', '.', '.', '.'
 | 's(1)', 's(1)',  '.', '.', '.', '.', '.', '.'
 | 's(1)', 's(1)',  '.', '.', '.', '.', '.', '.'
 | 's(1)', 's(1)',  '.', '.', '.', '.', '.', '.'
 | 's(1)', 's(1)',  '.', '.', '.', '.', '.', '.'
 | 's(1)', 's(1)',  '.', '.', '.', '.', '.', '.'
 | 's(2)', 's(1)',  '.', '.', '.', '.', '.', '.'
 | 's(1)', 's(1)',  '.', '.', '.', '.', '.', '.'
 | 's(1)', 's(1)',  '.', '.', '.', '.', '.', '.'
 |];
register_states = 
[| local_0, local_1, '.', '.', '.', '.', '.'
 | local_0, local_1, '.', '.', '.', '.', '.'
 | local_0, local_1, '.', '.', '.', '.', '.'
 |    in_2, local_1, '.', '.', '.', '.', '.'
 |    in_2, local_1, '.', '.', '.', '.', '.'
 |    in_2,  's(1)', '.', '.', '.', '.', '.'
 |  's(1)',  's(1)', '.', '.', '.', '.', '.'
 |  's(1)',  's(1)', '.', '.', '.', '.', '.'
 |  's(1)',  's(1)', '.', '.', '.', '.', '.'
 |  's(1)',  's(1)', '.', '.', '.', '.', '.'
 |  's(1)',  's(1)', '.', '.', '.', '.', '.'
 |  's(1)',  's(1)', '.', '.', '.', '.', '.'
 |];
program = [O('i32.load_0'), O('i32.store16_1'), TEE(TEE1), O('i32.load8_s_2'), TEE(TEE2), TEE(TEE1), TEE(TEE1), TEE(TEE1), O('i32.load8_s_8'), O('i32.store16_9'), NOP];
% time elapsed: 0.17 s
----------
value = 9;
fgas = [1, 1, 1, 1, 1, 1, 1, 1, 1, 0, 0];
fsize = [1, 1, 1, 1, 1, 1, 1, 1, 1, 1, 1];
states = 
[|   in_0,   in_1, in_2, '.', '.', '.', '.', '.'
 |   in_0,   in_1, in_2, '.', '.', '.', '.', '.'
 | 's(0)',   in_1, in_2, '.', '.', '.', '.', '.'
 | 's(2)', 's(1)',  '.', '.', '.', '.', '.', '.'
 | 's(1)', 's(1)',  '.', '.', '.', '.', '.', '.'
 | 's(1)', 's(1)',  '.', '.', '.', '.', '.', '.'
 | 's(1)', 's(1)',  '.', '.', '.', '.', '.', '.'
 | 's(2)', 's(1)',  '.', '.', '.', '.', '.', '.'
 |   in_2, 's(1)',  '.', '.', '.', '.', '.', '.'
 | 's(1)', 's(1)',  '.', '.', '.', '.', '.', '.'
 | 's(1)', 's(1)',  '.', '.', '.', '.', '.', '.'
 | 's(1)', 's(1)',  '.', '.', '.', '.', '.', '.'
 |];
register_states = 
[| local_0, local_1, '.', '.', '.', '.', '.'
 | local_0,    in_0, '.', '.', '.', '.', '.'
 | local_0,    in_0, '.', '.', '.', '.', '.'
 | local_0,    in_0, '.', '.', '.', '.', '.'
 | local_0,    in_0, '.', '.', '.', '.', '.'
 |  's(1)',    in_0, '.', '.', '.', '.', '.'
 |  's(1)',  's(1)', '.', '.', '.', '.', '.'
 |  's(1)',  's(1)', '.', '.', '.', '.', '.'
 |  's(1)',  's(1)', '.', '.', '.', '.', '.'
 |  's(1)',  's(1)', '.', '.', '.', '.', '.'
 |  's(1)',  's(1)', '.', '.', '.', '.', '.'
 |  's(1)',  's(1)', '.', '.', '.', '.', '.'
 |];
program = [TEE(TEE2), O('i32.load_0'), O('i32.store16_1'), O('i32.store16_9'), TEE(TEE1), TEE(TEE2), O('i32.load8_s_8'), O('i32.store16_9'), O('i32.load8_s_2'), NOP, NOP];
% time elapsed: 0.18 s
----------
value = 8;
fgas = [1, 1, 1, 1, 1, 1, 1, 1, 0, 0, 0];
fsize = [1, 1, 1, 1, 1, 1, 1, 1, 1, 1, 1];
states = 
[|   in_0,   in_1, in_2, '.', '.', '.', '.', '.'
 |   in_0,   in_1, in_2, '.', '.', '.', '.', '.'
 | 's(0)',   in_1, in_2, '.', '.', '.', '.', '.'
 | 's(1)', 's(1)',  '.', '.', '.', '.', '.', '.'
 | 's(2)', 's(1)',  '.', '.', '.', '.', '.', '.'
 |   in_2, 's(1)',  '.', '.', '.', '.', '.', '.'
 | 's(1)', 's(1)',  '.', '.', '.', '.', '.', '.'
 | 's(1)', 's(1)',  '.', '.', '.', '.', '.', '.'
 | 's(1)', 's(1)',  '.', '.', '.', '.', '.', '.'
 | 's(1)', 's(1)',  '.', '.', '.', '.', '.', '.'
 | 's(1)', 's(1)',  '.', '.', '.', '.', '.', '.'
 | 's(1)', 's(1)',  '.', '.', '.', '.', '.', '.'
 |];
register_states = 
[| local_0, local_1, '.', '.', '.', '.', '.'
 | local_0,    in_0, '.', '.', '.', '.', '.'
 | local_0,    in_0, '.', '.', '.', '.', '.'
 | local_0,    in_0, '.', '.', '.', '.', '.'
 | local_0,    in_0, '.', '.', '.', '.', '.'
 | local_0,    in_0, '.', '.', '.', '.', '.'
 | local_0,    in_0, '.', '.', '.', '.', '.'
 |  's(1)',    in_0, '.', '.', '.', '.', '.'
 |  's(1)',  's(1)', '.', '.', '.', '.', '.'
 |  's(1)',  's(1)', '.', '.', '.', '.', '.'
 |  's(1)',  's(1)', '.', '.', '.', '.', '.'
 |  's(1)',  's(1)', '.', '.', '.', '.', '.'
 |];
program = [TEE(TEE2), O('i32.load_0'), O('i32.store16_1'), O('i32.load8_s_8'), O('i32.store16_9'), O('i32.load8_s_2'), TEE(TEE1), TEE(TEE2), NOP, NOP, NOP];
% time elapsed: 0.19 s
----------
value = 7;
fgas = [1, 1, 1, 1, 1, 1, 1, 0, 0, 0, 0];
fsize = [1, 1, 1, 1, 1, 1, 1, 1, 1, 1, 1];
states = 
[|   in_0,   in_1, in_2, '.', '.', '.', '.', '.'
 | 's(0)',   in_1, in_2, '.', '.', '.', '.', '.'
 | 's(1)', 's(1)',  '.', '.', '.', '.', '.', '.'
 | 's(1)', 's(1)',  '.', '.', '.', '.', '.', '.'
 | 's(2)', 's(1)',  '.', '.', '.', '.', '.', '.'
 |   in_2, 's(1)',  '.', '.', '.', '.', '.', '.'
 | 's(1)', 's(1)',  '.', '.', '.', '.', '.', '.'
 | 's(1)', 's(1)',  '.', '.', '.', '.', '.', '.'
 | 's(1)', 's(1)',  '.', '.', '.', '.', '.', '.'
 | 's(1)', 's(1)',  '.', '.', '.', '.', '.', '.'
 | 's(1)', 's(1)',  '.', '.', '.', '.', '.', '.'
 | 's(1)', 's(1)',  '.', '.', '.', '.', '.', '.'
 |];
register_states = 
[| local_0, local_1, '.', '.', '.', '.', '.'
 | local_0, local_1, '.', '.', '.', '.', '.'
 | local_0, local_1, '.', '.', '.', '.', '.'
 | local_0,  's(1)', '.', '.', '.', '.', '.'
 | local_0,  's(1)', '.', '.', '.', '.', '.'
 | local_0,  's(1)', '.', '.', '.', '.', '.'
 | local_0,  's(1)', '.', '.', '.', '.', '.'
 |  's(1)',  's(1)', '.', '.', '.', '.', '.'
 |  's(1)',  's(1)', '.', '.', '.', '.', '.'
 |  's(1)',  's(1)', '.', '.', '.', '.', '.'
 |  's(1)',  's(1)', '.', '.', '.', '.', '.'
 |  's(1)',  's(1)', '.', '.', '.', '.', '.'
 |];
program = [O('i32.load_0'), O('i32.store16_1'), TEE(TEE2), O('i32.load8_s_8'), O('i32.store16_9'), O('i32.load8_s_2'), TEE(TEE1), NOP, NOP, NOP, NOP];
% time elapsed: 0.19 s
----------
==========
% time elapsed: 0.19 s
% [value > 6]
